100
32
21
32
16
31
9
20
17
6
3
14
26
10
9
27
8
1
1
1
4
1
17
2
1
1
3
3
3
2
1
2
17
3
18
1
4
3
1
1
1
2
3
1
17
1
1
1
2
2
1
1
1
1
4
17
2
17
3
1
1
6
1
18
3
1
3
1
8
3
20
1
1
1
3
3
2
1
5
2
1
1
16
5
1
1
2
2
2
1
2
1
2
3
17
1
1
1
5
1
1
6